scip/project/repair/build/rgn1.lp
\ SCIP STATISTICS
\   Problem name     : RGN
\   Variables        : 180 (100 binary, 0 integer, 0 implicit integer, 80 continuous)
\   Constraints      : 24
\   Obj. scale       : 1
\   Obj. offset      : 0
Minimize
 Obj: +3 x100 +3 x101 +3 x102 +3 x103 +3 x104 +3 x105 +3 x106 +3 x107 +3 x108 +3 x109 +3 x110 +3 x111
      +3 x112 +3 x113 +3 x114 +3 x115 +3 x116 +3 x117 +3 x118 +3 x119 +1 x120 +1 x121 +1 x122 +1 x123
      +1 x124 +1 x125 +1 x126 +1 x127 +1 x128 +1 x129 +1 x130 +1 x131 +1 x132 +1 x133 +1 x134 +1 x135
      +1 x136 +1 x137 +1 x138 +1 x139 +1 x140 +1 x141 +1 x142 +1 x143 +1 x144 +1 x145 +1 x146 +1 x147
      +1 x148 +1 x149 +1 x150 +1 x151 +1 x152 +1 x153 +1 x154 +1 x155 +1 x156 +1 x157 +1 x158 +1 x159
      +3 x160 +3 x161 +3 x162 +3 x163 +3 x164 +3 x165 +3 x166 +3 x167 +3 x168 +3 x169 +3 x170 +3 x171
      +3 x172 +3 x173 +3 x174 +3 x175 +3 x176 +3 x177 +3 x178 +3 x179
Subject to
 c0: +1 x1 +1 x2 +1 x3 +1 x4 +1 x5 +1 x6 +1 x7 +1 x8 +1 x9 +1 x10 +1 x11 +1 x12 +1 x13 +1 x14 +1 x15 +1 x16
  +1 x17 +1 x18 +1 x19 +1 x20 +1 x21 +1 x22 +1 x23 +1 x24 +1 x25 <= +1
 c1: +1 x26 +1 x27 +1 x28 +1 x29 +1 x30 +1 x31 +1 x32 +1 x33 +1 x34 +1 x35 +1 x36 +1 x37 +1 x38 +1 x39
  +1 x40 +1 x41 +1 x42 +1 x43 +1 x44 +1 x45 +1 x46 +1 x47 +1 x48 +1 x49 +1 x50 <= +1
 c2: +1 x51 +1 x52 +1 x53 +1 x54 +1 x55 +1 x56 +1 x57 +1 x58 +1 x59 +1 x60 +1 x61 +1 x62 +1 x63 +1 x64
  +1 x65 +1 x66 +1 x67 +1 x68 +1 x69 +1 x70 +1 x71 +1 x72 +1 x73 +1 x74 +1 x75 <= +1
 c3: +1 x76 +1 x77 +1 x78 +1 x79 +1 x80 +1 x81 +1 x82 +1 x83 +1 x84 +1 x85 +1 x86 +1 x87 +1 x88 +1 x89
  +1 x90 +1 x91 +1 x92 +1 x93 +1 x94 +1 x95 +1 x96 +1 x97 +1 x98 +1 x0 +1 x99 <= +1
 c4: -4.60000002 x1 -4.60000002 x6 -4.60000002 x7 -4.60000002 x8 -4.60000002 x9 -4.60000002 x16 -4.60000002 x17
  -4.60000002 x18 -4.60000002 x19 -4.60000002 x20 -4.60000002 x21 +1 x100 +1 x120 -1 x140 -1 x160 = -3.5
 c5: -4.60000002 x2 -4.60000002 x6 -4.60000002 x10 -4.60000002 x11 -4.60000002 x12 -4.60000002 x16 -4.60000002 x17
  -4.60000002 x18 -4.60000002 x22 -4.60000002 x23 -4.60000002 x24 +1 x104 +1 x124 -1 x144 -1 x164 = -3.5
 c6: -4.60000002 x3 -4.60000002 x7 -4.60000002 x10 -4.60000002 x13 -4.60000002 x14 -4.60000002 x16 -4.60000002 x19
  -4.60000002 x20 -4.60000002 x22 -4.60000002 x23 -4.60000002 x25 +1 x108 +1 x128 -1 x148 -1 x168 = -3.5
 c7: -4.60000002 x4 -4.60000002 x8 -4.60000002 x11 -4.60000002 x13 -4.60000002 x15 -4.60000002 x17 -4.60000002 x19
  -4.60000002 x21 -4.60000002 x22 -4.60000002 x24 -4.60000002 x25 +1 x112 +1 x132 -1 x152 -1 x172 = -3.5
 c8: -4.60000002 x5 -4.60000002 x9 -4.60000002 x12 -4.60000002 x14 -4.60000002 x15 -4.60000002 x18 -4.60000002 x20
  -4.60000002 x21 -4.60000002 x23 -4.60000002 x24 -4.60000002 x25 +1 x116 +1 x136 -1 x156 -1 x176 = -3.5
 c9: -4.60000002 x26 -4.60000002 x31 -4.60000002 x32 -4.60000002 x33 -4.60000002 x34 -4.60000002 x41 -4.60000002 x42
  -4.60000002 x43 -4.60000002 x44 -4.60000002 x45 -4.60000002 x46 -1 x100 +1 x101 -1 x120 +1 x121 +1 x140
  -1 x141 +1 x160 -1 x161 = -3.5
 c10: -4.60000002 x27 -4.60000002 x31 -4.60000002 x35 -4.60000002 x36 -4.60000002 x37 -4.60000002 x41
  -4.60000002 x42 -4.60000002 x43 -4.60000002 x47 -4.60000002 x48 -4.60000002 x49 -1 x104 +1 x105 -1 x124
  +1 x125 +1 x144 -1 x145 +1 x164 -1 x165 = -3.5
 c11: -4.60000002 x28 -4.60000002 x32 -4.60000002 x35 -4.60000002 x38 -4.60000002 x39 -4.60000002 x41
  -4.60000002 x44 -4.60000002 x45 -4.60000002 x47 -4.60000002 x48 -4.60000002 x50 -1 x108 +1 x109 -1 x128
  +1 x129 +1 x148 -1 x149 +1 x168 -1 x169 = -3.5
 c12: -4.60000002 x29 -4.60000002 x33 -4.60000002 x36 -4.60000002 x38 -4.60000002 x40 -4.60000002 x42
  -4.60000002 x44 -4.60000002 x46 -4.60000002 x47 -4.60000002 x49 -4.60000002 x50 -1 x112 +1 x113 -1 x132
  +1 x133 +1 x152 -1 x153 +1 x172 -1 x173 = -3.5
 c13: -4.60000002 x30 -4.60000002 x34 -4.60000002 x37 -4.60000002 x39 -4.60000002 x40 -4.60000002 x43
  -4.60000002 x45 -4.60000002 x46 -4.60000002 x48 -4.60000002 x49 -4.60000002 x50 -1 x116 +1 x117 -1 x136
  +1 x137 +1 x156 -1 x157 +1 x176 -1 x177 = -3.5
 c14: -4.60000002 x51 -4.60000002 x56 -4.60000002 x57 -4.60000002 x58 -4.60000002 x59 -4.60000002 x66
  -4.60000002 x67 -4.60000002 x68 -4.60000002 x69 -4.60000002 x70 -4.60000002 x71 -1 x101 +1 x102 -1 x121
  +1 x122 +1 x141 -1 x142 +1 x161 -1 x162 = -3.5
 c15: -4.60000002 x52 -4.60000002 x56 -4.60000002 x60 -4.60000002 x61 -4.60000002 x62 -4.60000002 x66
  -4.60000002 x67 -4.60000002 x68 -4.60000002 x72 -4.60000002 x73 -4.60000002 x74 -1 x105 +1 x106 -1 x125
  +1 x126 +1 x145 -1 x146 +1 x165 -1 x166 = -3.5
 c16: -4.60000002 x53 -4.60000002 x57 -4.60000002 x60 -4.60000002 x63 -4.60000002 x64 -4.60000002 x66
  -4.60000002 x69 -4.60000002 x70 -4.60000002 x72 -4.60000002 x73 -4.60000002 x75 -1 x109 +1 x110 -1 x129
  +1 x130 +1 x149 -1 x150 +1 x169 -1 x170 = -3.5
 c17: -4.60000002 x54 -4.60000002 x58 -4.60000002 x61 -4.60000002 x63 -4.60000002 x65 -4.60000002 x67
  -4.60000002 x69 -4.60000002 x71 -4.60000002 x72 -4.60000002 x74 -4.60000002 x75 -1 x113 +1 x114 -1 x133
  +1 x134 +1 x153 -1 x154 +1 x173 -1 x174 = -3.5
 c18: -4.60000002 x55 -4.60000002 x59 -4.60000002 x62 -4.60000002 x64 -4.60000002 x65 -4.60000002 x68
  -4.60000002 x70 -4.60000002 x71 -4.60000002 x73 -4.60000002 x74 -4.60000002 x75 -1 x117 +1 x118 -1 x137
  +1 x138 +1 x157 -1 x158 +1 x177 -1 x178 = -3.5
 c19: -4.60000002 x76 -4.60000002 x81 -4.60000002 x82 -4.60000002 x83 -4.60000002 x84 -4.60000002 x91
  -4.60000002 x92 -4.60000002 x93 -4.60000002 x94 -4.60000002 x95 -4.60000002 x96 -1 x102 +1 x103 -1 x122
  +1 x123 +1 x142 -1 x143 +1 x162 -1 x163 = -3.5
 c20: -4.60000002 x77 -4.60000002 x81 -4.60000002 x85 -4.60000002 x86 -4.60000002 x87 -4.60000002 x91
  -4.60000002 x92 -4.60000002 x93 -4.60000002 x97 -4.60000002 x98 -4.60000002 x0 -1 x106 +1 x107 -1 x126
  +1 x127 +1 x146 -1 x147 +1 x166 -1 x167 = -3.5
 c21: -4.60000002 x78 -4.60000002 x82 -4.60000002 x85 -4.60000002 x88 -4.60000002 x89 -4.60000002 x91
  -4.60000002 x94 -4.60000002 x95 -4.60000002 x97 -4.60000002 x98 -4.60000002 x99 -1 x110 +1 x111 -1 x130
  +1 x131 +1 x150 -1 x151 +1 x170 -1 x171 = -3.5
 c22: -4.60000002 x79 -4.60000002 x83 -4.60000002 x86 -4.60000002 x88 -4.60000002 x90 -4.60000002 x92
  -4.60000002 x94 -4.60000002 x96 -4.60000002 x97 -4.60000002 x0 -4.60000002 x99 -1 x114 +1 x115 -1 x134
  +1 x135 +1 x154 -1 x155 +1 x174 -1 x175 = -3.5
 c23: -4.60000002 x80 -4.60000002 x84 -4.60000002 x87 -4.60000002 x89 -4.60000002 x90 -4.60000002 x93
  -4.60000002 x95 -4.60000002 x96 -4.60000002 x98 -4.60000002 x0 -4.60000002 x99 -1 x118 +1 x119 -1 x138
  +1 x139 +1 x158 -1 x159 +1 x178 -1 x179 = -3.5
Bounds
 0 <= x0 <= 1
 0 <= x1 <= 1
 0 <= x2 <= 1
 0 <= x3 <= 1
 0 <= x4 <= 1
 0 <= x5 <= 1
 0 <= x6 <= 1
 0 <= x7 <= 1
 0 <= x8 <= 1
 0 <= x9 <= 1
 0 <= x10 <= 1
 0 <= x11 <= 1
 0 <= x12 <= 1
 0 <= x13 <= 1
 0 <= x14 <= 1
 0 <= x15 <= 1
 0 <= x16 <= 1
 0 <= x17 <= 1
 0 <= x18 <= 1
 0 <= x19 <= 1
 0 <= x20 <= 1
 0 <= x21 <= 1
 0 <= x22 <= 1
 0 <= x23 <= 1
 0 <= x24 <= 1
 0 <= x25 <= 1
 0 <= x26 <= 1
 0 <= x27 <= 1
 0 <= x28 <= 1
 0 <= x29 <= 1
 0 <= x30 <= 1
 0 <= x31 <= 1
 0 <= x32 <= 1
 0 <= x33 <= 1
 0 <= x34 <= 1
 0 <= x35 <= 1
 0 <= x36 <= 1
 0 <= x37 <= 1
 0 <= x38 <= 1
 0 <= x39 <= 1
 0 <= x40 <= 1
 0 <= x41 <= 1
 0 <= x42 <= 1
 0 <= x43 <= 1
 0 <= x44 <= 1
 0 <= x45 <= 1
 0 <= x46 <= 1
 0 <= x47 <= 1
 0 <= x48 <= 1
 0 <= x49 <= 1
 0 <= x50 <= 1
 0 <= x51 <= 1
 0 <= x52 <= 1
 0 <= x53 <= 1
 0 <= x54 <= 1
 0 <= x55 <= 1
 0 <= x56 <= 1
 0 <= x57 <= 1
 0 <= x58 <= 1
 0 <= x59 <= 1
 0 <= x60 <= 1
 0 <= x61 <= 1
 0 <= x62 <= 1
 0 <= x63 <= 1
 0 <= x64 <= 1
 0 <= x65 <= 1
 0 <= x66 <= 1
 0 <= x67 <= 1
 0 <= x68 <= 1
 0 <= x69 <= 1
 0 <= x70 <= 1
 0 <= x71 <= 1
 0 <= x72 <= 1
 0 <= x73 <= 1
 0 <= x74 <= 1
 0 <= x75 <= 1
 0 <= x76 <= 1
 0 <= x77 <= 1
 0 <= x78 <= 1
 0 <= x79 <= 1
 0 <= x80 <= 1
 0 <= x81 <= 1
 0 <= x82 <= 1
 0 <= x83 <= 1
 0 <= x84 <= 1
 0 <= x85 <= 1
 0 <= x86 <= 1
 0 <= x87 <= 1
 0 <= x88 <= 1
 0 <= x89 <= 1
 0 <= x90 <= 1
 0 <= x91 <= 1
 0 <= x92 <= 1
 0 <= x93 <= 1
 0 <= x94 <= 1
 0 <= x95 <= 1
 0 <= x96 <= 1
 0 <= x97 <= 1
 0 <= x98 <= 1
 0 <= x99 <= 1
 0 <= x100 <= 100
 0 <= x101 <= 100
 0 <= x102 <= 100
 0 <= x103 <= 100
 0 <= x104 <= 100
 0 <= x105 <= 100
 0 <= x106 <= 100
 0 <= x107 <= 100
 0 <= x108 <= 100
 0 <= x109 <= 100
 0 <= x110 <= 100
 0 <= x111 <= 100
 0 <= x112 <= 100
 0 <= x113 <= 100
 0 <= x114 <= 100
 0 <= x115 <= 100
 0 <= x116 <= 100
 0 <= x117 <= 100
 0 <= x118 <= 100
 0 <= x119 <= 100
 0 <= x120 <= 2
 0 <= x121 <= 2
 0 <= x122 <= 2
 0 <= x123 <= 2
 0 <= x124 <= 2
 0 <= x125 <= 2
 0 <= x126 <= 2
 0 <= x127 <= 2
 0 <= x128 <= 2
 0 <= x129 <= 2
 0 <= x130 <= 2
 0 <= x131 <= 2
 0 <= x132 <= 2
 0 <= x133 <= 2
 0 <= x134 <= 2
 0 <= x135 <= 2
 0 <= x136 <= 2
 0 <= x137 <= 2
 0 <= x138 <= 2
 0 <= x139 <= 2
 0 <= x140 <= 2
 0 <= x141 <= 2
 0 <= x142 <= 2
 0 <= x143 <= 2
 0 <= x144 <= 2
 0 <= x145 <= 2
 0 <= x146 <= 2
 0 <= x147 <= 2
 0 <= x148 <= 2
 0 <= x149 <= 2
 0 <= x150 <= 2
 0 <= x151 <= 2
 0 <= x152 <= 2
 0 <= x153 <= 2
 0 <= x154 <= 2
 0 <= x155 <= 2
 0 <= x156 <= 2
 0 <= x157 <= 2
 0 <= x158 <= 2
 0 <= x159 <= 2
 0 <= x160 <= 100
 0 <= x161 <= 100
 0 <= x162 <= 100
 0 <= x163 <= 100
 0 <= x164 <= 100
 0 <= x165 <= 100
 0 <= x166 <= 100
 0 <= x167 <= 100
 0 <= x168 <= 100
 0 <= x169 <= 100
 0 <= x170 <= 100
 0 <= x171 <= 100
 0 <= x172 <= 100
 0 <= x173 <= 100
 0 <= x174 <= 100
 0 <= x175 <= 100
 0 <= x176 <= 100
 0 <= x177 <= 100
 0 <= x178 <= 100
 0 <= x179 <= 100
Binaries
 x0 x1 x2 x3 x4 x5 x6 x7 x8 x9 x10 x11 x12 x13 x14 x15 x16 x17 x18 x19 x20 x21 x22 x23 x24 x25 x26 x27
 x28 x29 x30 x31 x32 x33 x34 x35 x36 x37 x38 x39 x40 x41 x42 x43 x44 x45 x46 x47 x48 x49 x50 x51 x52 x53
 x54 x55 x56 x57 x58 x59 x60 x61 x62 x63 x64 x65 x66 x67 x68 x69 x70 x71 x72 x73 x74 x75 x76 x77 x78 x79
 x80 x81 x82 x83 x84 x85 x86 x87 x88 x89 x90 x91 x92 x93 x94 x95 x96 x97 x98 x99
End
