scip/project/repair/build/rgn1.sol
solution status: optimal solution found
objective value:                          82.19999924
x19                                                 1 	(obj:0)
x49                                                 1 	(obj:0)
x73                                                 1 	(obj:0)
x96                                                 1 	(obj:0)
x120                                       1.10000002 	(obj:1)
x128                                       1.10000002 	(obj:1)
x132                                       1.10000002 	(obj:1)
x133                                                2 	(obj:1)
x141                                                2 	(obj:1)
x142                                                2 	(obj:1)
x143                                                2 	(obj:1)
x144                                                2 	(obj:1)
x145                                                2 	(obj:1)
x146                                       1.29999996 	(obj:1)
x147                                                2 	(obj:1)
x149                                                2 	(obj:1)
x150                                       1.29999996 	(obj:1)
x151                                                2 	(obj:1)
x154                                       1.29999996 	(obj:1)
x155                                0.199999939999998 	(obj:1)
x156                                                2 	(obj:1)
x157                                                2 	(obj:1)
x158                                       1.29999996 	(obj:1)
x159                                0.199999939999999 	(obj:1)
x161                                       0.39999998 	(obj:3)
x162                                       3.89999998 	(obj:3)
x163                                       2.79999996 	(obj:3)
x164                                              1.5 	(obj:3)
x165                                       0.39999998 	(obj:3)
x167                                       2.79999996 	(obj:3)
x169                                0.399999979999999 	(obj:3)
x171                                       2.79999996 	(obj:3)
x176                                              1.5 	(obj:3)
x177                                0.399999979999999 	(obj:3)
x113                                0.200000040000001 	(obj:3)
